p cnf 14 64
-6 -7 -11 0
-3 -6 -11 0
2 3 14 0
-1 -2 4 0
-2 3 5 0
6 12 -14 0
1 -6 7 0
1 8 -14 0
1 7 -9 0
-1 -3 14 0
2 -5 10 0
-5 9 11 0
1 6 8 0
-6 -9 12 0
-7 -8 -9 0
1 -2 -11 0
-2 9 -13 0
3 7 12 0
-1 6 -10 0
-3 -7 -13 0
1 3 12 0
-6 9 -12 0
1 10 -12 0
3 -9 12 0
-3 8 -9 0
-4 -6 8 0
-4 -7 9 0
-1 -6 -7 0
-9 -10 12 0
-3 -9 12 0
-2 3 13 0
1 2 7 0
-3 -4 12 0
7 9 14 0
2 9 -13 0
4 -7 13 0
1 5 -8 0
-2 -3 4 0
1 7 13 0
-1 2 8 0
9 10 14 0
3 -8 11 0
-2 7 -12 0
-4 9 -14 0
-7 -9 12 0
-7 8 13 0
-2 -8 -13 0
9 -10 -13 0
-2 7 -13 0
2 -6 12 0
2 -8 -10 0
5 -6 -7 0
-4 -11 14 0
-6 11 12 0
2 -6 14 0
5 -10 -12 0
-4 -5 9 0
-1 5 -10 0
1 -5 12 0
3 -12 14 0
-3 -5 8 0
-2 -6 7 0
1 -7 -14 0
-5 7 11 0
